p cnf 14 41
1 2 3 4 5 6 7 8 9 10 0
-1 -11 0
-1 -12 0
-1 -13 0
-1 -14 0
-2 -11 0
-2 -12 0
-2 -13 0
-2 14 0
-3 -11 0
-3 -12 0
-3 13 0
-3 -14 0
-4 -11 0
-4 -12 0
-4 13 0
-4 14 0
-5 -11 0
-5 12 0
-5 -13 0
-5 -14 0
-6 -11 0
-6 12 0
-6 -13 0
-6 14 0
-7 -11 0
-7 12 0
-7 13 0
-7 -14 0
-8 -11 0
-8 12 0
-8 13 0
-8 14 0
-9 11 0
-9 -12 0
-9 -13 0
-9 -14 0
-10 11 0
-10 -12 0
-10 -13 0
-10 14 0
